5358103057863049864505,4,1,2,03,13,1,2,010,13,1,2,012,2,1,2,01,9,1,2,011,6,1,2,04,3,1,2,04,7,1,2,09,9,1,2,07,11,1,2,01,6,1,2,08,14,1,2,02,8,1,2,015,4,1,2,010,11,1,2,02,6,1,2,09,8,1,2,010,7,1,2,04,6,1,2,02,9,1,2,010,2,1,2,03,15,1,2,013,11,1,2,015,13,1,2,01,5,1,2,08,11,1,2,09,1,1,2,09,15,1,2,06,9,1,2,05,8,1,2,012,14,1,2,06,5,1,2,014,13,1,2,08,6,1,2,04,7,1,2,02,6,1,2,06,5,1,2,012,1,1,2,07,3,1,2,011,9,1,2,09,7,1,2,03,15,1,2,08,13,1,2,010,2,1,2,014,9,1,2,02,1,1,2,010,1,1,2,015,6,1,2,010,7,1,2,012,12,1,2,0